35 35
22
3 3 32 0
3 4 4 31
3 5 32 3
3 6 11 0
3 7 11 6
3 8 32 8
3 9 4 0
3 10 4 9
3 12 4 19
3 19 32 16
3 22 11 13
4 3 7 5
4 4 7 8
4 5 7 0
4 6 0 29
4 7 14 8
4 8 14 0
4 12 0 0
4 17 0 12
4 20 14 15
4 23 7 12
14 35 18 0
----------
==========
